c This is QMaxSAT 2017 based on 14.07
c This is Glucose 3.0
c This is MiniSat 2.2.0
c WARNING: for repeatability, setting FPU to use double precision
c card = mrwto, comp = 0, pmodel = 0, narr = 32, mct = 152, verb = 0
cr firstCPXsol 0 0 0
c top = 158709225
c |  Number of variables:    66978                                            |
c |  Number of clauses:      10871913                                         |
c |  Weight of hard clauses: 158709225                                        |
c |  Number of soft clauses: 1034048                                          |
c |  Number of unit soft clauses: 0                                           |
c |  Maximum Cardinality (by unit): 7790948160   (0           )               |
c last restart ## conflicts  :  21 17378 
o 211209 | cpuTime 5.63593 s
c Sum of weights = 243467130
c A number of soft clauses remained = 32314
c MRWTO encoding for Pseudo-Boolean Constraints
c sizeMax=65536
c No.0 Divisor=12	generated by pow1
c No.1 Divisor=12	generated by pow1
c No.2 Divisor=12	generated by pow1
c No.3 Divisor=4	maxTime=8718	nofZero=2660	dRate=29.40%	Evl=2.21
c No.4 Divisor=12	generated by pow1
c p0= 12	p1= 12	p2= 12	p3= 4	p4= 12	
c number of digits = 6
c linkingVar[0].size = 12, linkingVar[1].size = 12, linkingVar[2].size = 12, linkingVar[3].size = 4, linkingVar[4].size = 12, linkingVar[5].size = 3, 
c Pseudo-Boolean Constraints: 1135159 variables and 12147181 clauses
c Sum of weights = 243467130
c A number of soft clauses remained = 32314
c MRWTO encoding for Pseudo-Boolean Constraints
c sizeMax=65536
c No.0 Divisor=12	generated by pow1
c No.1 Divisor=12	generated by pow1
c No.2 Divisor=12	generated by pow1
c No.3 Divisor=4	maxTime=8718	nofZero=2660	dRate=29.40%	Evl=2.21
c No.4 Divisor=12	generated by pow1
c p0= 12	p1= 12	p2= 12	p3= 4	p4= 12	
c number of digits = 6
c linkingVar[0].size = 12, linkingVar[1].size = 12, linkingVar[2].size = 12, linkingVar[3].size = 4, linkingVar[4].size = 12, linkingVar[5].size = 3, 
c Pseudo-Boolean Constraints: 1135159 variables and 12147181 clauses
c Sum of weights = 243467130
c A number of soft clauses remained = 32314
c MRWTO encoding for Pseudo-Boolean Constraints
c sizeMax=65536
c No.0 Divisor=12	generated by pow1
c No.1 Divisor=12	generated by pow1
c No.2 Divisor=12	generated by pow1
c No.3 Divisor=4	maxTime=8718	nofZero=2660	dRate=29.40%	Evl=2.21
c No.4 Divisor=12	generated by pow1
c p0= 12	p1= 12	p2= 12	p3= 4	p4= 12	
c number of digits = 6
c linkingVar[0].size = 12, linkingVar[1].size = 12, linkingVar[2].size = 12, linkingVar[3].size = 4, linkingVar[4].size = 12, linkingVar[5].size = 3, 
c Pseudo-Boolean Constraints: 1135159 variables and 12147181 clauses
c Sum of weights = 243467130
c A number of soft clauses remained = 32314
c MRWTO encoding for Pseudo-Boolean Constraints
c sizeMax=65536
c No.0 Divisor=12	generated by pow1
c No.1 Divisor=12	generated by pow1
c No.2 Divisor=12	generated by pow1
c No.3 Divisor=4	maxTime=8718	nofZero=2660	dRate=29.40%	Evl=2.21
c No.4 Divisor=12	generated by pow1
c p0= 12	p1= 12	p2= 12	p3= 4	p4= 12	
c number of digits = 6
c linkingVar[0].size = 12, linkingVar[1].size = 12, linkingVar[2].size = 12, linkingVar[3].size = 4, linkingVar[4].size = 12, linkingVar[5].size = 3, 
c Pseudo-Boolean Constraints: 1135159 variables and 12147181 clauses
c Sum of weights = 243467130
c A number of soft clauses remained = 32314
c MRWTO encoding for Pseudo-Boolean Constraints
c sizeMax=65536
c No.0 Divisor=12	generated by pow1
c No.1 Divisor=12	generated by pow1
c No.2 Divisor=12	generated by pow1
c No.3 Divisor=4	maxTime=8718	nofZero=2660	dRate=29.40%	Evl=2.21
c No.4 Divisor=12	generated by pow1
c p0= 12	p1= 12	p2= 12	p3= 4	p4= 12	
c number of digits = 6
c linkingVar[0].size = 12, linkingVar[1].size = 12, linkingVar[2].size = 12, linkingVar[3].size = 4, linkingVar[4].size = 12, linkingVar[5].size = 3, 
c Pseudo-Boolean Constraints: 1135159 variables and 12147181 clauses
c Sum of weights = 243467130
c A number of soft clauses remained = 32314
c MRWTO encoding for Pseudo-Boolean Constraints
c sizeMax=65536
c No.0 Divisor=12	generated by pow1
c No.1 Divisor=12	generated by pow1
c No.2 Divisor=12	generated by pow1
c No.3 Divisor=4	maxTime=8718	nofZero=2660	dRate=29.40%	Evl=2.21
c No.4 Divisor=12	generated by pow1
c p0= 12	p1= 12	p2= 12	p3= 4	p4= 12	
c number of digits = 6
c linkingVar[0].size = 12, linkingVar[1].size = 12, linkingVar[2].size = 12, linkingVar[3].size = 4, linkingVar[4].size = 12, linkingVar[5].size = 3, 
c Pseudo-Boolean Constraints: 1135159 variables and 12147181 clauses
c Sum of weights = 243467130
c A number of soft clauses remained = 32314
c MRWTO encoding for Pseudo-Boolean Constraints
c sizeMax=65536
c No.0 Divisor=12	generated by pow1
c No.1 Divisor=12	generated by pow1
c No.2 Divisor=12	generated by pow1
c No.3 Divisor=4	maxTime=8718	nofZero=2660	dRate=29.40%	Evl=2.21
c No.4 Divisor=12	generated by pow1
c p0= 12	p1= 12	p2= 12	p3= 4	p4= 12	
c number of digits = 6
c linkingVar[0].size = 12, linkingVar[1].size = 12, linkingVar[2].size = 12, linkingVar[3].size = 4, linkingVar[4].size = 12, linkingVar[5].size = 3, 
c Pseudo-Boolean Constraints: 1135159 variables and 12147181 clauses
c Sum of weights = 243467130
c A number of soft clauses remained = 32314
c MRWTO encoding for Pseudo-Boolean Constraints
c sizeMax=65536
c No.0 Divisor=12	generated by pow1
c No.1 Divisor=12	generated by pow1
c No.2 Divisor=12	generated by pow1
c No.3 Divisor=4	maxTime=8718	nofZero=2660	dRate=29.40%	Evl=2.21
c No.4 Divisor=12	generated by pow1
c p0= 12	p1= 12	p2= 12	p3= 4	p4= 12	
c number of digits = 6
c linkingVar[0].size = 12, linkingVar[1].size = 12, linkingVar[2].size = 12, linkingVar[3].size = 4, linkingVar[4].size = 12, linkingVar[5].size = 3, 
c Pseudo-Boolean Constraints: 1135159 variables and 12147181 clauses
c Sum of weights = 243467130
c A number of soft clauses remained = 32314
c MRWTO encoding for Pseudo-Boolean Constraints
c sizeMax=65536
c No.0 Divisor=12	generated by pow1
c No.1 Divisor=12	generated by pow1
c No.2 Divisor=12	generated by pow1
c No.3 Divisor=4	maxTime=8718	nofZero=2660	dRate=29.40%	Evl=2.21
c No.4 Divisor=12	generated by pow1
c p0= 12	p1= 12	p2= 12	p3= 4	p4= 12	
c number of digits = 6
c linkingVar[0].size = 12, linkingVar[1].size = 12, linkingVar[2].size = 12, linkingVar[3].size = 4, linkingVar[4].size = 12, linkingVar[5].size = 3, 
c Pseudo-Boolean Constraints: 1135159 variables and 12147181 clauses
c Sum of weights = 243467130
c A number of soft clauses remained = 32314
c MRWTO encoding for Pseudo-Boolean Constraints
c sizeMax=65536
c No.0 Divisor=12	generated by pow1
c No.1 Divisor=12	generated by pow1
c No.2 Divisor=12	generated by pow1
c No.3 Divisor=4	maxTime=8718	nofZero=2660	dRate=29.40%	Evl=2.21
c No.4 Divisor=12	generated by pow1
c p0= 12	p1= 12	p2= 12	p3= 4	p4= 12	
c number of digits = 6
c linkingVar[0].size = 12, linkingVar[1].size = 12, linkingVar[2].size = 12, linkingVar[3].size = 4, linkingVar[4].size = 12, linkingVar[5].size = 3, 
c Pseudo-Boolean Constraints: 1135159 variables and 12147181 clauses
c Sum of weights = 243467130
c A number of soft clauses remained = 32314
c MRWTO encoding for Pseudo-Boolean Constraints
c sizeMax=65536
c No.0 Divisor=12	generated by pow1
c No.1 Divisor=12	generated by pow1
c No.2 Divisor=12	generated by pow1
c No.3 Divisor=4	maxTime=8718	nofZero=2660	dRate=29.40%	Evl=2.21
c No.4 Divisor=12	generated by pow1
c p0= 12	p1= 12	p2= 12	p3= 4	p4= 12	
c number of digits = 6
c linkingVar[0].size = 12, linkingVar[1].size = 12, linkingVar[2].size = 12, linkingVar[3].size = 4, linkingVar[4].size = 12, linkingVar[5].size = 3, 
c Pseudo-Boolean Constraints: 1135159 variables and 12147181 clauses
c Sum of weights = 243467130
c A number of soft clauses remained = 32314
c MRWTO encoding for Pseudo-Boolean Constraints
c sizeMax=65536
c No.0 Divisor=12	generated by pow1
c No.1 Divisor=12	generated by pow1
c No.2 Divisor=12	generated by pow1
c No.3 Divisor=4	maxTime=8718	nofZero=2660	dRate=29.40%	Evl=2.21
c No.4 Divisor=12	generated by pow1
c p0= 12	p1= 12	p2= 12	p3= 4	p4= 12	
c number of digits = 6
c linkingVar[0].size = 12, linkingVar[1].size = 12, linkingVar[2].size = 12, linkingVar[3].size = 4, linkingVar[4].size = 12, linkingVar[5].size = 3, 
c Pseudo-Boolean Constraints: 1135159 variables and 12147181 clauses
c Sum of weights = 243467130
c A number of soft clauses remained = 32314
c MRWTO encoding for Pseudo-Boolean Constraints
c sizeMax=65536
c No.0 Divisor=12	generated by pow1
c No.1 Divisor=12	generated by pow1
c No.2 Divisor=12	generated by pow1
c No.3 Divisor=4	maxTime=8718	nofZero=2660	dRate=29.40%	Evl=2.21
c No.4 Divisor=12	generated by pow1
c p0= 12	p1= 12	p2= 12	p3= 4	p4= 12	
c number of digits = 6
c linkingVar[0].size = 12, linkingVar[1].size = 12, linkingVar[2].size = 12, linkingVar[3].size = 4, linkingVar[4].size = 12, linkingVar[5].size = 3, 
c Pseudo-Boolean Constraints: 1135159 variables and 12147181 clauses
c Sum of weights = 243467130
c A number of soft clauses remained = 32314
c MRWTO encoding for Pseudo-Boolean Constraints
c sizeMax=65536
c No.0 Divisor=12	generated by pow1
c No.1 Divisor=12	generated by pow1
c No.2 Divisor=12	generated by pow1
c No.3 Divisor=4	maxTime=8718	nofZero=2660	dRate=29.40%	Evl=2.21
c No.4 Divisor=12	generated by pow1
c p0= 12	p1= 12	p2= 12	p3= 4	p4= 12	
c number of digits = 6
c linkingVar[0].size = 12, linkingVar[1].size = 12, linkingVar[2].size = 12, linkingVar[3].size = 4, linkingVar[4].size = 12, linkingVar[5].size = 3, 
c Pseudo-Boolean Constraints: 1135159 variables and 12147181 clauses
c Sum of weights = 243467130
c A number of soft clauses remained = 32314
c MRWTO encoding for Pseudo-Boolean Constraints
c sizeMax=65536
c No.0 Divisor=12	generated by pow1
c No.1 Divisor=12	generated by pow1
c No.2 Divisor=12	generated by pow1
c No.3 Divisor=4	maxTime=8718	nofZero=2660	dRate=29.40%	Evl=2.21
c No.4 Divisor=12	generated by pow1
c p0= 12	p1= 12	p2= 12	p3= 4	p4= 12	
c number of digits = 6
c linkingVar[0].size = 12, linkingVar[1].size = 12, linkingVar[2].size = 12, linkingVar[3].size = 4, linkingVar[4].size = 12, linkingVar[5].size = 3, 
c Pseudo-Boolean Constraints: 1135159 variables and 12147181 clauses
c Sum of weights = 243467130
c A number of soft clauses remained = 32314
c MRWTO encoding for Pseudo-Boolean Constraints
c sizeMax=65536
c No.0 Divisor=12	generated by pow1
c No.1 Divisor=12	generated by pow1
c No.2 Divisor=12	generated by pow1
c No.3 Divisor=4	maxTime=8718	nofZero=2660	dRate=29.40%	Evl=2.21
c No.4 Divisor=12	generated by pow1
c p0= 12	p1= 12	p2= 12	p3= 4	p4= 12	
c number of digits = 6
c linkingVar[0].size = 12, linkingVar[1].size = 12, linkingVar[2].size = 12, linkingVar[3].size = 4, linkingVar[4].size = 12, linkingVar[5].size = 3, 
c Pseudo-Boolean Constraints: 1135159 variables and 12147181 clauses
c Sum of weights = 243467130
c A number of soft clauses remained = 32314
c MRWTO encoding for Pseudo-Boolean Constraints
c sizeMax=65536
c No.0 Divisor=12	generated by pow1
c No.1 Divisor=12	generated by pow1
c No.2 Divisor=12	generated by pow1
c No.3 Divisor=4	maxTime=8718	nofZero=2660	dRate=29.40%	Evl=2.21
c No.4 Divisor=12	generated by pow1
c p0= 12	p1= 12	p2= 12	p3= 4	p4= 12	
c number of digits = 6
c linkingVar[0].size = 12, linkingVar[1].size = 12, linkingVar[2].size = 12, linkingVar[3].size = 4, linkingVar[4].size = 12, linkingVar[5].size = 3, 
c Pseudo-Boolean Constraints: 1135159 variables and 12147181 clauses
c Sum of weights = 243467130
c A number of soft clauses remained = 32314
c MRWTO encoding for Pseudo-Boolean Constraints
c sizeMax=65536
c No.0 Divisor=12	generated by pow1
c No.1 Divisor=12	generated by pow1
c No.2 Divisor=12	generated by pow1
c No.3 Divisor=4	maxTime=8718	nofZero=2660	dRate=29.40%	Evl=2.21
c No.4 Divisor=12	generated by pow1
c p0= 12	p1= 12	p2= 12	p3= 4	p4= 12	
c number of digits = 6
c linkingVar[0].size = 12, linkingVar[1].size = 12, linkingVar[2].size = 12, linkingVar[3].size = 4, linkingVar[4].size = 12, linkingVar[5].size = 3, 
c Pseudo-Boolean Constraints: 1135159 variables and 12147181 clauses
c Sum of weights = 243467130
c A number of soft clauses remained = 32314
c MRWTO encoding for Pseudo-Boolean Constraints
c sizeMax=65536
c No.0 Divisor=12	generated by pow1
c No.1 Divisor=12	generated by pow1
c No.2 Divisor=12	generated by pow1
c No.3 Divisor=4	maxTime=8718	nofZero=2660	dRate=29.40%	Evl=2.21
c No.4 Divisor=12	generated by pow1
c p0= 12	p1= 12	p2= 12	p3= 4	p4= 12	
c number of digits = 6
c linkingVar[0].size = 12, linkingVar[1].size = 12, linkingVar[2].size = 12, linkingVar[3].size = 4, linkingVar[4].size = 12, linkingVar[5].size = 3, 
c Pseudo-Boolean Constraints: 1135159 variables and 12147181 clauses
c Sum of weights = 243467130
c A number of soft clauses remained = 32314
c MRWTO encoding for Pseudo-Boolean Constraints
c sizeMax=65536
c No.0 Divisor=12	generated by pow1
c No.1 Divisor=12	generated by pow1
c No.2 Divisor=12	generated by pow1
c No.3 Divisor=4	maxTime=8718	nofZero=2660	dRate=29.40%	Evl=2.21
c No.4 Divisor=12	generated by pow1
c p0= 12	p1= 12	p2= 12	p3= 4	p4= 12	
c number of digits = 6
c linkingVar[0].size = 12, linkingVar[1].size = 12, linkingVar[2].size = 12, linkingVar[3].size = 4, linkingVar[4].size = 12, linkingVar[5].size = 3, 
c Pseudo-Boolean Constraints: 1135159 variables and 12147181 clauses
c Sum of weights = 243467130
c A number of soft clauses remained = 32314
c MRWTO encoding for Pseudo-Boolean Constraints
c sizeMax=65536
c No.0 Divisor=12	generated by pow1
c No.1 Divisor=12	generated by pow1
c No.2 Divisor=12	generated by pow1
c No.3 Divisor=4	maxTime=8718	nofZero=2660	dRate=29.40%	Evl=2.21
c No.4 Divisor=12	generated by pow1
c p0= 12	p1= 12	p2= 12	p3= 4	p4= 12	
c number of digits = 6
c linkingVar[0].size = 12, linkingVar[1].size = 12, linkingVar[2].size = 12, linkingVar[3].size = 4, linkingVar[4].size = 12, linkingVar[5].size = 3, 
c Pseudo-Boolean Constraints: 1135159 variables and 12147181 clauses
c Sum of weights = 243467130
c A number of soft clauses remained = 32314
c MRWTO encoding for Pseudo-Boolean Constraints
c sizeMax=65536
c No.0 Divisor=12	generated by pow1
c No.1 Divisor=12	generated by pow1
c No.2 Divisor=12	generated by pow1
c No.3 Divisor=4	maxTime=8718	nofZero=2660	dRate=29.40%	Evl=2.21
c No.4 Divisor=12	generated by pow1
c p0= 12	p1= 12	p2= 12	p3= 4	p4= 12	
c number of digits = 6
c linkingVar[0].size = 12, linkingVar[1].size = 12, linkingVar[2].size = 12, linkingVar[3].size = 4, linkingVar[4].size = 12, linkingVar[5].size = 3, 
c Pseudo-Boolean Constraints: 1135159 variables and 12147181 clauses
c Sum of weights = 243467130
c A number of soft clauses remained = 32314
c MRWTO encoding for Pseudo-Boolean Constraints
c sizeMax=65536
c No.0 Divisor=12	generated by pow1
c No.1 Divisor=12	generated by pow1
c No.2 Divisor=12	generated by pow1
c No.3 Divisor=4	maxTime=8718	nofZero=2660	dRate=29.40%	Evl=2.21
c No.4 Divisor=12	generated by pow1
c p0= 12	p1= 12	p2= 12	p3= 4	p4= 12	
c number of digits = 6
c linkingVar[0].size = 12, linkingVar[1].size = 12, linkingVar[2].size = 12, linkingVar[3].size = 4, linkingVar[4].size = 12, linkingVar[5].size = 3, 
c Pseudo-Boolean Constraints: 1135159 variables and 12147181 clauses
c Sum of weights = 243467130
c A number of soft clauses remained = 32314
c MRWTO encoding for Pseudo-Boolean Constraints
c sizeMax=65536
c No.0 Divisor=12	generated by pow1
c No.1 Divisor=12	generated by pow1
c No.2 Divisor=12	generated by pow1
c No.3 Divisor=4	maxTime=8718	nofZero=2660	dRate=29.40%	Evl=2.21
c No.4 Divisor=12	generated by pow1
c p0= 12	p1= 12	p2= 12	p3= 4	p4= 12	
c number of digits = 6
c linkingVar[0].size = 12, linkingVar[1].size = 12, linkingVar[2].size = 12, linkingVar[3].size = 4, linkingVar[4].size = 12, linkingVar[5].size = 3, 
c Pseudo-Boolean Constraints: 1135159 variables and 12147181 clauses
c Sum of weights = 243467130
c A number of soft clauses remained = 32314
c MRWTO encoding for Pseudo-Boolean Constraints
c sizeMax=65536
c No.0 Divisor=12	generated by pow1
c No.1 Divisor=12	generated by pow1
c No.2 Divisor=12	generated by pow1
c No.3 Divisor=4	maxTime=8718	nofZero=2660	dRate=29.40%	Evl=2.21
c No.4 Divisor=12	generated by pow1
c p0= 12	p1= 12	p2= 12	p3= 4	p4= 12	
c number of digits = 6
c linkingVar[0].size = 12, linkingVar[1].size = 12, linkingVar[2].size = 12, linkingVar[3].size = 4, linkingVar[4].size = 12, linkingVar[5].size = 3, 
c Pseudo-Boolean Constraints: 1135159 variables and 12147181 clauses
c Sum of weights = 243467130
c A number of soft clauses remained = 32314
c MRWTO encoding for Pseudo-Boolean Constraints
c sizeMax=65536
c No.0 Divisor=12	generated by pow1
c No.1 Divisor=12	generated by pow1
c No.2 Divisor=12	generated by pow1
c No.3 Divisor=4	maxTime=8718	nofZero=2660	dRate=29.40%	Evl=2.21
c No.4 Divisor=12	generated by pow1
c p0= 12	p1= 12	p2= 12	p3= 4	p4= 12	
c number of digits = 6
c linkingVar[0].size = 12, linkingVar[1].size = 12, linkingVar[2].size = 12, linkingVar[3].size = 4, linkingVar[4].size = 12, linkingVar[5].size = 3, 
c Pseudo-Boolean Constraints: 1135159 variables and 12147181 clauses
c Sum of weights = 243467130
c A number of soft clauses remained = 32314
c MRWTO encoding for Pseudo-Boolean Constraints
c sizeMax=65536
c No.0 Divisor=12	generated by pow1
c No.1 Divisor=12	generated by pow1
c No.2 Divisor=12	generated by pow1
c No.3 Divisor=4	maxTime=8718	nofZero=2660	dRate=29.40%	Evl=2.21
c No.4 Divisor=12	generated by pow1
c p0= 12	p1= 12	p2= 12	p3= 4	p4= 12	
c number of digits = 6
c linkingVar[0].size = 12, linkingVar[1].size = 12, linkingVar[2].size = 12, linkingVar[3].size = 4, linkingVar[4].size = 12, linkingVar[5].size = 3, 
c Pseudo-Boolean Constraints: 1135159 variables and 12147181 clauses
c Sum of weights = 243467130
c A number of soft clauses remained = 32314
c MRWTO encoding for Pseudo-Boolean Constraints
c sizeMax=65536
c No.0 Divisor=12	generated by pow1
c No.1 Divisor=12	generated by pow1
c No.2 Divisor=12	generated by pow1
c No.3 Divisor=4	maxTime=8718	nofZero=2660	dRate=29.40%	Evl=2.21
c No.4 Divisor=12	generated by pow1
c p0= 12	p1= 12	p2= 12	p3= 4	p4= 12	
c number of digits = 6
c linkingVar[0].size = 12, linkingVar[1].size = 12, linkingVar[2].size = 12, linkingVar[3].size = 4, linkingVar[4].size = 12, linkingVar[5].size = 3, 
c Pseudo-Boolean Constraints: 1135159 variables and 12147181 clauses
c Sum of weights = 243467130
c A number of soft clauses remained = 32314
c MRWTO encoding for Pseudo-Boolean Constraints
c sizeMax=65536
c No.0 Divisor=12	generated by pow1
c No.1 Divisor=12	generated by pow1
c No.2 Divisor=12	generated by pow1
c No.3 Divisor=4	maxTime=8718	nofZero=2660	dRate=29.40%	Evl=2.21
c No.4 Divisor=12	generated by pow1
c p0= 12	p1= 12	p2= 12	p3= 4	p4= 12	
c number of digits = 6
c linkingVar[0].size = 12, linkingVar[1].size = 12, linkingVar[2].size = 12, linkingVar[3].size = 4, linkingVar[4].size = 12, linkingVar[5].size = 3, 
c Pseudo-Boolean Constraints: 1135159 variables and 12147181 clauses
c Sum of weights = 243467130
c A number of soft clauses remained = 32314
c MRWTO encoding for Pseudo-Boolean Constraints
c sizeMax=65536
c No.0 Divisor=12	generated by pow1
c No.1 Divisor=12	generated by pow1
c No.2 Divisor=12	generated by pow1
c No.3 Divisor=4	maxTime=8718	nofZero=2660	dRate=29.40%	Evl=2.21
c No.4 Divisor=12	generated by pow1
c p0= 12	p1= 12	p2= 12	p3= 4	p4= 12	
c number of digits = 6
c linkingVar[0].size = 12, linkingVar[1].size = 12, linkingVar[2].size = 12, linkingVar[3].size = 4, linkingVar[4].size = 12, linkingVar[5].size = 3, 
c Pseudo-Boolean Constraints: 1135159 variables and 12147181 clauses
c Sum of weights = 243467130
c A number of soft clauses remained = 32314
c MRWTO encoding for Pseudo-Boolean Constraints
c sizeMax=65536
c No.0 Divisor=12	generated by pow1
c No.1 Divisor=12	generated by pow1
c No.2 Divisor=12	generated by pow1
c No.3 Divisor=4	maxTime=8718	nofZero=2660	dRate=29.40%	Evl=2.21
c No.4 Divisor=12	generated by pow1
c p0= 12	p1= 12	p2= 12	p3= 4	p4= 12	
c number of digits = 6
c linkingVar[0].size = 12, linkingVar[1].size = 12, linkingVar[2].size = 12, linkingVar[3].size = 4, linkingVar[4].size = 12, linkingVar[5].size = 3, 
c Pseudo-Boolean Constraints: 1135159 variables and 12147181 clauses
c Sum of weights = 243467130
c A number of soft clauses remained = 32314
c MRWTO encoding for Pseudo-Boolean Constraints
c sizeMax=65536
c No.0 Divisor=12	generated by pow1
c No.1 Divisor=12	generated by pow1
c No.2 Divisor=12	generated by pow1
c No.3 Divisor=4	maxTime=8718	nofZero=2660	dRate=29.40%	Evl=2.21
c No.4 Divisor=12	generated by pow1
c p0= 12	p1= 12	p2= 12	p3= 4	p4= 12	
c number of digits = 6
c linkingVar[0].size = 12, linkingVar[1].size = 12, linkingVar[2].size = 12, linkingVar[3].size = 4, linkingVar[4].size = 12, linkingVar[5].size = 3, 
c Pseudo-Boolean Constraints: 1135159 variables and 12147181 clauses
s UNKNOWN
c Search is stopped by a limit (maybe time-limit)
cr positiVarArr: [ | 119(1->88) | 246(1->32) | 516(1->119) | 690(1->110) | 792(1->29) | 1076(1->130) | 1211(1->82) | 1361(1->49) | 1553(1->58) | 1711(1->33) | 1884(1->23) | 2049(1->5) | 2305(1->78) | 2461(1->51) | 2628(1->35) | 2852(1->76) | 2962(1->3) | 3158(1->16) | 3411(1->86) | 3522(1->14) | 3839(1->148) | 3902(1->28) | 4179(1->122) | 4368(1->128) | 4544(1->121) | 4757(1->151) | 4889(1->100) | 5061(1->89) | 5296(1->141) | 5348(1->10) | 5608(1->87) | 5760(1->56) | 5884(2->1) | 6063(3->1) | 6223(4->1) | 6430(5->1) | 6617(6->1) | 6797(7->1) | 7000(8->15) | 7167(9->1) | 7347(10->1) | 7535(11->1) | 7708(12->1) | 7892(13->1) | 8072(14->1) | 8237(15->1) | 8439(16->1) | 8620(17->1) | 8792(18->1) | 8981(19->1) | 9168(20->1) | 9350(21->1) | 9532(22->1) | 9752(23->22) | 9897(24->1) | 10076(25->1) | 10258(26->1) | 10440(27->1) | 10627(28->1) | 10845(29->17) | 10992(30->1) | 11169(31->1) | 11351(32->1) | 11536(33->1) | 11877(34->134) | 11983(35->57) | 12140(36->31) | 12354(37->62) | 12608(38->133) | 12702(39->44) | 12875(40->34) | 13118(41->94) | 13324(42->117) | 13414(43->24) | 13688(44->115) | 13823(45->67) | 14009(46->70) | 14268(47->146) | 14437(48->132) | 14632(49->144) | 14783(50->112) | 14960(51->106) | 15067(52->30) | 15304(53->84) | 15484(54->81) | 15590(55->4) | 15843(56->74) | 16021(57->69) | 16199(58->64) | 16398(59->80) | 16598(60->97) | 16737(61->53) | 16910(62->43) | 17110(63->60) | 17260(64->27) | 17489(65->73) | 17700(66->101) | 17921(67->139) | 18011(68->46) | 18155(69->7) | 18429(70->98) | 18577(71->63) | 18705(72->8) | 18900(73->20) | 19135(74->72) | 19311(75->65) | 19534(76->105) | 19614(77->2) | 19933(78->138) | 20019(79->41) | 20186(80->25) | 20362(81->18) | 20572(82->45) | 20812(83->102) | 20948(84->55) | 21112(85->36) | 21350(86->91) | 21494(87->52) | 21734(88->109) | 21901(89->93) | 22076(90->85) | 22221(91->47) | 22453(92->96) | 22653(93->113) | 22854(94->131) | 22956(95->50) | 23213(96->124) | 23398(97->126) | 23530(98->75) | 23651(99->13) | 23935(100->114) | 24042(101->38) | 24248(102->61) | 24460(103->90) | 24632(104->79) | 24828(105->92) | 24940(106->21) | 25102(107->1) | 25294(108->9) | 25572(109->104) | 25677(110->26) | 25974(111->140) | 26083(112->66) | 26323(113->123) | 26454(114->71) | 26572(115->6) | 26797(116->48) | 27075(117->143) | 27235(118->120) | 27406(119->108) | 27631(120->150) | 27718(121->54) | 27999(122->152) | 28069(123->39) | 28308(124->95) | 28531(125->135) | 28682(126->103) | 28802(127->40) | 29056(128->111) | 29255(129->127) | 29456(130->145) | 29593(131->99) | 29745(132->68) | 29902(133->42) | 30062(134->19) | 30333(135->107) | 30382(136->1) | 30651(137->59) | 30858(138->83) | 31095(139->137) | 31178(140->37) | 31440(141->116) | 31643(142->136) | 31837(143->147) | 31991(144->118) | 32181(145->125) | 32368(146->129) | 32571(147->149) | 32747(148->142) | 32760(149->1) | 33048(150->77) | 33166(151->12) | 33348(152->11) | ]
cr the 1-th chain: [ 1->88->109->104->79->41->94->131->99->13->1 ] (#non-depot=9) {#cumul.=10}
cr the 2-th chain: [ 1->32->1 ] (#non-depot=1) {#cumul.=11}
cr the 3-th chain: [ 1->119->108->9->1 ] (#non-depot=3) {#cumul.=14}
cr the 4-th chain: [ 1->110->26->1 ] (#non-depot=2) {#cumul.=16}
cr the 5-th chain: [ 1->29->17->1 ] (#non-depot=2) {#cumul.=18}
cr the 6-th chain: [ 1->130->145->125->135->107->1 ] (#non-depot=5) {#cumul.=23}
cr the 7-th chain: [ 1->82->45->67->139->137->59->80->25->1 ] (#non-depot=8) {#cumul.=31}
cr the 8-th chain: [ 1->49->144->118->120->150->77->2->1 ] (#non-depot=7) {#cumul.=38}
cr the 9-th chain: [ 1->58->64->27->1 ] (#non-depot=3) {#cumul.=41}
cr the 10-th chain: [ 1->33->1 ] (#non-depot=1) {#cumul.=42}
cr the 11-th chain: [ 1->23->22->1 ] (#non-depot=2) {#cumul.=44}
cr the 12-th chain: [ 1->5->1 ] (#non-depot=1) {#cumul.=45}
cr the 13-th chain: [ 1->78->138->83->102->61->53->84->55->4->1 ] (#non-depot=9) {#cumul.=54}
cr the 14-th chain: [ 1->51->106->21->1 ] (#non-depot=3) {#cumul.=57}
cr the 15-th chain: [ 1->35->57->69->7->1 ] (#non-depot=4) {#cumul.=61}
cr the 16-th chain: [ 1->76->105->92->96->124->95->50->112->66->101->38->133->42->117->143->147->149->1 ] (#non-depot=17) {#cumul.=78}
cr the 17-th chain: [ 1->3->1 ] (#non-depot=1) {#cumul.=79}
cr the 18-th chain: [ 1->16->1 ] (#non-depot=1) {#cumul.=80}
cr the 19-th chain: [ 1->86->91->47->146->129->127->40->34->134->19->1 ] (#non-depot=10) {#cumul.=90}
cr the 20-th chain: [ 1->14->1 ] (#non-depot=1) {#cumul.=91}
cr the 21-th chain: [ 1->148->142->136->1 ] (#non-depot=3) {#cumul.=94}
cr the 22-th chain: [ 1->28->1 ] (#non-depot=1) {#cumul.=95}
cr the 23-th chain: [ 1->122->152->11->1 ] (#non-depot=3) {#cumul.=98}
cr the 24-th chain: [ 1->128->111->140->37->62->43->24->1 ] (#non-depot=7) {#cumul.=105}
cr the 25-th chain: [ 1->121->54->81->18->1 ] (#non-depot=4) {#cumul.=109}
cr the 26-th chain: [ 1->151->12->1 ] (#non-depot=2) {#cumul.=111}
cr the 27-th chain: [ 1->100->114->71->63->60->97->126->103->90->85->36->31->1 ] (#non-depot=12) {#cumul.=123}
cr the 28-th chain: [ 1->89->93->113->123->39->44->115->6->1 ] (#non-depot=8) {#cumul.=131}
cr the 29-th chain: [ 1->141->116->48->132->68->46->70->98->75->65->73->20->1 ] (#non-depot=12) {#cumul.=143}
cr the 30-th chain: [ 1->10->1 ] (#non-depot=1) {#cumul.=144}
cr the 31-th chain: [ 1->87->52->30->1 ] (#non-depot=3) {#cumul.=147}
cr the 32-th chain: [ 1->56->74->72->8->15->1 ] (#non-depot=5) {#cumul.=152}
c Latest Answer = 0 by 1 loops
c restarts              : 981
c conflicts             : 240641         (67 /sec)
c decisions             : 76624264       (0.00 % random) (21319 /sec)
c propagations          : 22987307963    (6395586 /sec)
c conflict literals     : 51913960       (3.03 % deleted)
c Memory used           : 31642.00 MB
c CPU time              : 3594.25 s
